
(set-logic ALL) 

(declare-datatype MyList ((Nil) (Cons (head Real) (tail MyList)) )) 
(declare-fun l0 () MyList) 
(declare-fun l1 () MyList) 
(declare-fun l2 () MyList) 
(declare-fun l3 () MyList) 
(declare-fun i0 () Real) 
(declare-fun i1 () Real) 
(assert (or (= l0 Nil) (= l1 Nil)) )
(assert (is-Cons l3) )
(assert (and (= l1 l2) (= l2 l0)) )
(assert (= l2 l1) )
(assert (is-Cons Nil) )
(assert (and (= l0 Nil) (is-Cons Nil) (= l1 Nil) (is-Nil l1)) )
(assert (or (= l1 l2) (= l1 Nil) (= l2 l0) (= l1 Nil)) )
(assert (and (is-Nil Nil) (= l3 l1) (= l3 Nil) (= l2 Nil)) )
(check-sat)
